nK = 1121;
nT = 4;
nI = 7;
L = 35;
TT = 247;
np = 1;
nc = 3;
b = [66, 23, 68, 69, 25, 68, 44];
d = [102, 127, 105, 143, 64, 122, 88];
m = [1.4, 2.5, 2.2, 1.7, 1.8, 1, 1.4];
pt = [0.27, 0.21, 0.25, 0.27];
st = [12.42, 11.55, 11.75, 11.88];
arc = {<1, 0, 1, 1, 0, 0, 0, [1, 1, 1, 1]>, <2, 1, 2, 1, 0, 0, 0, [1, 1, 1, 1]>, <3, 2, 3, 1, 0, 0, 0, [1, 1, 1, 1]>, <4, 3, 4, 1, 0, 0, 0, [1, 1, 1, 1]>, <5, 4, 5, 1, 0, 0, 0, [1, 1, 1, 1]>, <6, 5, 6, 1, 0, 0, 0, [1, 1, 1, 1]>, <7, 6, 7, 1, 0, 0, 0, [1, 1, 1, 1]>, <8, 7, 8, 1, 0, 0, 0, [1, 1, 1, 1]>, <9, 8, 9, 1, 0, 0, 0, [1, 1, 1, 1]>, <10, 9, 10, 1, 0, 0, 0, [1, 1, 1, 1]>, <11, 10, 11, 1, 0, 0, 0, [1, 1, 1, 1]>, <12, 11, 12, 1, 0, 0, 0, [1, 1, 1, 1]>, <13, 12, 13, 1, 0, 0, 0, [1, 1, 1, 1]>, <14, 13, 14, 1, 0, 0, 0, [1, 1, 1, 1]>, <15, 14, 15, 1, 0, 0, 0, [1, 1, 1, 1]>, <16, 15, 16, 1, 0, 0, 0, [1, 1, 1, 1]>, <17, 16, 17, 1, 0, 0, 0, [1, 1, 1, 1]>, <18, 17, 18, 1, 0, 0, 0, [1, 1, 1, 1]>, <19, 18, 19, 1, 0, 0, 0, [1, 1, 1, 1]>, <20, 19, 20, 1, 0, 0, 0, [1, 1, 1, 1]>, <21, 20, 21, 1, 0, 0, 0, [1, 1, 1, 1]>, <22, 21, 22, 1, 0, 0, 0, [1, 1, 1, 1]>, <23, 22, 23, 1, 0, 0, 0, [1, 1, 1, 1]>, <24, 23, 24, 1, 0, 0, 0, [1, 1, 1, 1]>, <25, 24, 25, 1, 0, 0, 0, [1, 1, 1, 1]>, <26, 25, 26, 1, 0, 0, 0, [1, 1, 1, 1]>, <27, 26, 27, 1, 0, 0, 0, [1, 1, 1, 1]>, <28, 27, 28, 1, 0, 0, 0, [1, 1, 1, 1]>, <29, 28, 29, 1, 0, 0, 0, [1, 1, 1, 1]>, <30, 29, 30, 1, 0, 0, 0, [1, 1, 1, 1]>, <31, 30, 31, 1, 0, 0, 0, [1, 1, 1, 1]>, <32, 31, 32, 1, 0, 0, 0, [1, 1, 1, 1]>, <33, 32, 33, 1, 0, 0, 0, [1, 1, 1, 1]>, <34, 33, 34, 1, 0, 0, 0, [1, 1, 1, 1]>, <35, 34, 35, 1, 0, 0, 0, [1, 1, 1, 1]>, <36, 0, 17, 17, 1, 0, 1, [1, 1, 1, 0]>, <37, 1, 18, 17, 1, 0, 1, [1, 1, 1, 0]>, <38, 2, 19, 17, 1, 0, 1, [1, 1, 1, 0]>, <39, 3, 20, 17, 1, 0, 1, [1, 1, 1, 0]>, <40, 4, 21, 17, 1, 0, 1, [1, 1, 1, 0]>, <41, 5, 22, 17, 1, 0, 1, [1, 1, 1, 0]>, <42, 6, 23, 17, 1, 0, 1, [1, 1, 1, 0]>, <43, 9, 26, 17, 1, 0, 1, [1, 1, 1, 0]>, <44, 10, 27, 17, 1, 0, 1, [1, 1, 1, 0]>, <45, 11, 28, 17, 1, 0, 1, [1, 1, 1, 0]>, <46, 12, 29, 17, 1, 0, 1, [1, 1, 1, 0]>, <47, 13, 30, 17, 1, 0, 1, [1, 1, 1, 0]>, <48, 14, 31, 17, 1, 0, 1, [1, 1, 1, 0]>, <49, 15, 32, 17, 1, 0, 1, [1, 1, 1, 0]>, <50, 16, 33, 17, 1, 0, 1, [1, 1, 1, 0]>, <51, 17, 34, 17, 1, 0, 1, [1, 1, 1, 0]>, <52, 18, 35, 17, 1, 0, 1, [1, 1, 1, 0]>, <53, 0, 18, 18, 2, 0, 0, [1, 0, 1, 1]>, <54, 1, 19, 18, 2, 0, 0, [1, 0, 1, 1]>, <55, 2, 20, 18, 2, 0, 0, [1, 0, 1, 1]>, <56, 3, 21, 18, 2, 0, 0, [1, 0, 1, 1]>, <57, 4, 22, 18, 2, 0, 0, [1, 0, 1, 1]>, <58, 5, 23, 18, 2, 0, 0, [1, 0, 1, 1]>, <59, 6, 24, 18, 2, 0, 0, [1, 0, 1, 1]>, <60, 8, 26, 18, 2, 0, 0, [1, 0, 1, 1]>, <61, 9, 27, 18, 2, 0, 0, [1, 0, 1, 1]>, <62, 10, 28, 18, 2, 0, 0, [1, 0, 1, 1]>, <63, 11, 29, 18, 2, 0, 0, [1, 0, 1, 1]>, <64, 12, 30, 18, 2, 0, 0, [1, 0, 1, 1]>, <65, 13, 31, 18, 2, 0, 0, [1, 0, 1, 1]>, <66, 14, 32, 18, 2, 0, 0, [1, 0, 1, 1]>, <67, 15, 33, 18, 2, 0, 0, [1, 0, 1, 1]>, <68, 16, 34, 18, 2, 0, 0, [1, 0, 1, 1]>, <69, 17, 35, 18, 2, 0, 0, [1, 0, 1, 1]>, <70, 0, 17, 17, 3, 0, 0, [1, 0, 1, 1]>, <71, 1, 18, 17, 3, 0, 0, [1, 0, 1, 1]>, <72, 2, 19, 17, 3, 0, 0, [1, 0, 1, 1]>, <73, 3, 20, 17, 3, 0, 0, [1, 0, 1, 1]>, <74, 4, 21, 17, 3, 0, 0, [1, 0, 1, 1]>, <75, 5, 22, 17, 3, 0, 0, [1, 0, 1, 1]>, <76, 6, 23, 17, 3, 0, 0, [1, 0, 1, 1]>, <77, 9, 26, 17, 3, 0, 0, [1, 0, 1, 1]>, <78, 10, 27, 17, 3, 0, 0, [1, 0, 1, 1]>, <79, 11, 28, 17, 3, 0, 0, [1, 0, 1, 1]>, <80, 12, 29, 17, 3, 0, 0, [1, 0, 1, 1]>, <81, 13, 30, 17, 3, 0, 0, [1, 0, 1, 1]>, <82, 14, 31, 17, 3, 0, 0, [1, 0, 1, 1]>, <83, 15, 32, 17, 3, 0, 0, [1, 0, 1, 1]>, <84, 16, 33, 17, 3, 0, 0, [1, 0, 1, 1]>, <85, 17, 34, 17, 3, 0, 0, [1, 0, 1, 1]>, <86, 18, 35, 17, 3, 0, 0, [1, 0, 1, 1]>, <87, 0, 20, 20, 4, 1, 0, [0, 1, 1, 1]>, <88, 1, 21, 20, 4, 1, 0, [0, 1, 1, 1]>, <89, 2, 22, 20, 4, 1, 0, [0, 1, 1, 1]>, <90, 3, 23, 20, 4, 1, 0, [0, 1, 1, 1]>, <91, 4, 24, 20, 4, 1, 0, [0, 1, 1, 1]>, <92, 5, 25, 20, 4, 1, 0, [0, 1, 1, 1]>, <93, 6, 26, 20, 4, 1, 0, [0, 1, 1, 1]>, <94, 7, 27, 20, 4, 1, 0, [0, 1, 1, 1]>, <95, 8, 28, 20, 4, 1, 0, [0, 1, 1, 1]>, <96, 9, 29, 20, 4, 1, 0, [0, 1, 1, 1]>, <97, 10, 30, 20, 4, 1, 0, [0, 1, 1, 1]>, <98, 11, 31, 20, 4, 1, 0, [0, 1, 1, 1]>, <99, 12, 32, 20, 4, 1, 0, [0, 1, 1, 1]>, <100, 13, 33, 20, 4, 1, 0, [0, 1, 1, 1]>, <101, 14, 34, 20, 4, 1, 0, [0, 1, 1, 1]>, <102, 15, 35, 20, 4, 1, 0, [0, 1, 1, 1]>, <103, 0, 21, 21, 5, 0, 1, [1, 1, 0, 1]>, <104, 1, 22, 21, 5, 0, 1, [1, 1, 0, 1]>, <105, 2, 23, 21, 5, 0, 1, [1, 1, 0, 1]>, <106, 3, 24, 21, 5, 0, 1, [1, 1, 0, 1]>, <107, 4, 25, 21, 5, 0, 1, [1, 1, 0, 1]>, <108, 5, 26, 21, 5, 0, 1, [1, 1, 0, 1]>, <109, 6, 27, 21, 5, 0, 1, [1, 1, 0, 1]>, <110, 7, 28, 21, 5, 0, 1, [1, 1, 0, 1]>, <111, 8, 29, 21, 5, 0, 1, [1, 1, 0, 1]>, <112, 9, 30, 21, 5, 0, 1, [1, 1, 0, 1]>, <113, 10, 31, 21, 5, 0, 1, [1, 1, 0, 1]>, <114, 11, 32, 21, 5, 0, 1, [1, 1, 0, 1]>, <115, 12, 33, 21, 5, 0, 1, [1, 1, 0, 1]>, <116, 13, 34, 21, 5, 0, 1, [1, 1, 0, 1]>, <117, 14, 35, 21, 5, 0, 1, [1, 1, 0, 1]>, <118, 0, 18, 18, 6, 0, 1, [1, 0, 1, 1]>, <119, 1, 19, 18, 6, 0, 1, [1, 0, 1, 1]>, <120, 2, 20, 18, 6, 0, 1, [1, 0, 1, 1]>, <121, 3, 21, 18, 6, 0, 1, [1, 0, 1, 1]>, <122, 4, 22, 18, 6, 0, 1, [1, 0, 1, 1]>, <123, 5, 23, 18, 6, 0, 1, [1, 0, 1, 1]>, <124, 6, 24, 18, 6, 0, 1, [1, 0, 1, 1]>, <125, 8, 26, 18, 6, 0, 1, [1, 0, 1, 1]>, <126, 9, 27, 18, 6, 0, 1, [1, 0, 1, 1]>, <127, 10, 28, 18, 6, 0, 1, [1, 0, 1, 1]>, <128, 11, 29, 18, 6, 0, 1, [1, 0, 1, 1]>, <129, 12, 30, 18, 6, 0, 1, [1, 0, 1, 1]>, <130, 13, 31, 18, 6, 0, 1, [1, 0, 1, 1]>, <131, 14, 32, 18, 6, 0, 1, [1, 0, 1, 1]>, <132, 15, 33, 18, 6, 0, 1, [1, 0, 1, 1]>, <133, 16, 34, 18, 6, 0, 1, [1, 0, 1, 1]>, <134, 17, 35, 18, 6, 0, 1, [1, 0, 1, 1]>, <135, 0, 18, 18, 7, 0, 0, [0, 1, 1, 1]>, <136, 1, 19, 18, 7, 0, 0, [0, 1, 1, 1]>, <137, 2, 20, 18, 7, 0, 0, [0, 1, 1, 1]>, <138, 3, 21, 18, 7, 0, 0, [0, 1, 1, 1]>, <139, 4, 22, 18, 7, 0, 0, [0, 1, 1, 1]>, <140, 5, 23, 18, 7, 0, 0, [0, 1, 1, 1]>, <141, 6, 24, 18, 7, 0, 0, [0, 1, 1, 1]>, <142, 8, 26, 18, 7, 0, 0, [0, 1, 1, 1]>, <143, 9, 27, 18, 7, 0, 0, [0, 1, 1, 1]>, <144, 10, 28, 18, 7, 0, 0, [0, 1, 1, 1]>, <145, 11, 29, 18, 7, 0, 0, [0, 1, 1, 1]>, <146, 12, 30, 18, 7, 0, 0, [0, 1, 1, 1]>, <147, 13, 31, 18, 7, 0, 0, [0, 1, 1, 1]>, <148, 14, 32, 18, 7, 0, 0, [0, 1, 1, 1]>, <149, 15, 33, 18, 7, 0, 0, [0, 1, 1, 1]>, <150, 16, 34, 18, 7, 0, 0, [0, 1, 1, 1]>, <151, 17, 35, 18, 7, 0, 0, [0, 1, 1, 1]>};
